# Solution for model UnassignedDistance
# Objective value = -4.3040210547092261e+00
x[0][0] 2.4465656508067917e+00
x[0][1] 1.5049908063633759e+00
x[0][2] 0
x[1][0] 1.8004214308952009e+00
x[1][1] 1.1065162573031397e+00
x[1][2] 0
x[2][0] 1.3743880938948503e+00
x[2][1] 8.4479960440738544e-01
x[2][2] 0
x[3][0] 0
x[3][1] 0
x[3][2] 0
v[0,1][0] 6.4614421991159077e-01
v[0,1][1] 3.9847454906023627e-01
v[0,1][2] 0
v[0,2][0] 1.0721775569119953e+00
v[0,2][1] 6.6019120195599423e-01
v[0,2][2] 0
v[0,3][0] 2.4465656508067672e+00
v[0,3][1] 1.5049908063633779e+00
v[0,3][2] 0
v[1,2][0] 4.2603333700035062e-01
v[1,2][1] 2.6171665289575424e-01
v[1,2][2] 0
v[1,3][0] 1.8004214308951985e+00
v[1,3][1] 1.1065162573031433e+00
v[1,3][2] 0
v[2,3][0] 1.3743880938948503e+00
v[2,3][1] 8.4479960440738544e-01
v[2,3][2] 0
w[0,1] 7.5913392703389526e-01
w[0,2] 1.2591334864443924e+00
w[0,3] 2.8723999999999954e+00
w[1,2] 5.0000001063858512e-01
w[1,3] 2.1132665606834520e+00
w[2,3] 1.6132665632953487e+00
a[0,1,0] 0
a[0,1,1] 0
a[0,1,2] 1
a[0,1,3] 0
a[0,1,4] 0
a[0,1,5] 0
a[0,2,0] 1
a[0,2,1] 0
a[0,2,2] 0
a[0,2,3] 0
a[0,2,4] 0
a[0,2,5] 0
a[0,3,0] 0
a[0,3,1] 0
a[0,3,2] 0
a[0,3,3] 0
a[0,3,4] 0
a[0,3,5] 1
a[1,2,0] 0
a[1,2,1] 1
a[1,2,2] 0
a[1,2,3] 0
a[1,2,4] 0
a[1,2,5] 0
a[1,3,0] 0
a[1,3,1] 0
a[1,3,2] 0
a[1,3,3] 0
a[1,3,4] 1
a[1,3,5] 0
a[2,3,0] 0
a[2,3,1] 0
a[2,3,2] 0
a[2,3,3] 1
a[2,3,4] 0
a[2,3,5] 0
z[0,1,0] -7.9059406954407052e-07
z[0,1,1] -7.9059406954407052e-07
z[0,1,2] 7.5913392703389526e-01
z[0,1,3] -7.9059406954407052e-07
z[0,1,4] -7.9059406954407052e-07
z[0,1,5] -7.9059406954407052e-07
z[0,2,0] 1.2591334864443924e+00
z[0,2,1] -9.4844454512355014e-07
z[0,2,2] -9.4844454512355014e-07
z[0,2,3] -8.3614654711183789e-07
z[0,2,4] -9.4844454512355014e-07
z[0,2,5] -9.4844454512355014e-07
z[0,3,0] -4.9560688042404877e-07
z[0,3,1] 0
z[0,3,2] 0
z[0,3,3] -4.9560688042404877e-07
z[0,3,4] -4.9560688042404877e-07
z[0,3,5] 2.8723999999999954e+00
z[1,2,0] -9.4905341918583019e-07
z[1,2,1] 5.0000001063858512e-01
z[1,2,2] -9.4905341918583019e-07
z[1,2,3] -9.4905341918583019e-07
z[1,2,4] -9.4905341918583019e-07
z[1,2,5] -9.4905341718742875e-07
z[1,3,0] -8.9818673343344813e-07
z[1,3,1] -8.9818673432162655e-07
z[1,3,2] -8.9818673432162655e-07
z[1,3,3] -8.9818673432162655e-07
z[1,3,4] 2.1132665606834520e+00
z[1,3,5] -8.9818673432162655e-07
z[2,3,0] -4.5937768300419179e-07
z[2,3,1] -4.5937768389237021e-07
z[2,3,2] -4.5937768300419179e-07
z[2,3,3] 1.6132665632953487e+00
z[2,3,4] -4.5937768300419179e-07
z[2,3,5] -4.5937768300419179e-07
